QPLIB_3797
LGQ
maximize
344 # number of variables
679 # number of constraints
0.0 # default value for linear coefficients in objective
40 # number of non-default linear coefficients in objective
1 3.0
2 3.0
3 3.0
4 3.0
5 4.5
6 4.5
7 4.5
8 4.5
9 5.0
10 5.0
11 5.0
12 5.0
13 6.0
14 6.0
15 6.0
16 6.0
17 5.0
18 5.0
19 5.0
20 5.0
21 6.0
22 6.0
23 6.0
24 6.0
25 3.0
26 3.0
27 3.0
28 3.0
29 4.5
30 4.5
31 4.5
32 4.5
33 -5.0
34 -5.0
35 -5.0
36 -5.0
37 -5.0
38 -5.0
71 -1.8
72 -1.0
0.0 # objective constant
56 # number of quadratic terms in all constraints
624 16843010 16843010 -2.0
625 16843010 16843010 -2.0
626 16843010 16843010 -2.0
627 16843010 16843010 -2.0
628 16843010 16843010 -2.0
629 16843010 16843010 -2.0
630 16843010 16843010 -2.0
631 16843010 16843010 -2.0
632 16843010 16843010 -2.0
633 16843010 16843010 -2.0
634 16843010 16843010 -2.0
635 16843010 16843010 -2.0
636 16843010 16843010 -2.0
637 16843010 16843010 -2.0
638 16843010 16843010 -2.0
639 16843010 16843010 -2.0
640 16843010 16843010 -2.0
641 16843010 16843010 -2.0
642 16843010 16843010 -2.0
643 16843010 16843010 -2.0
644 16843010 16843010 -2.0
645 16843010 16843010 -2.0
646 16843010 16843010 -2.0
647 16843010 16843010 -2.0
648 16843010 16843010 -2.0
649 16843010 16843010 -2.0
650 16843010 16843010 -2.0
651 16843010 16843010 -2.0
652 16843010 16843010 -2.0
653 16843010 16843010 -2.0
654 16843010 16843010 -2.0
655 16843010 16843010 -2.0
656 16843010 16843010 -2.0
657 16843010 16843010 -2.0
658 16843010 16843010 -2.0
659 16843010 16843010 -2.0
660 16843010 16843010 -2.0
661 16843010 16843010 -2.0
662 16843010 16843010 -2.0
663 16843010 16843010 -2.0
664 16843010 16843010 -2.0
665 16843010 16843010 -2.0
666 16843010 16843010 -2.0
667 16843010 16843010 -2.0
668 16843010 16843010 -2.0
669 16843010 16843010 -2.0
670 16843010 16843010 -2.0
671 16843010 16843010 -2.0
672 16843010 16843010 -2.0
673 16843010 16843010 -2.0
674 16843010 16843010 -2.0
675 16843010 16843010 -2.0
676 16843010 16843010 -2.0
677 16843010 16843010 -2.0
678 16843010 16843010 -2.0
679 16843010 16843010 -2.0
1853 # number of linear terms in all constraints
1 73 1.0
1 74 1.0
1 75 1.0
1 76 1.0
1 77 1.0
1 78 1.0
1 79 1.0
1 80 1.0
2 81 1.0
2 82 1.0
2 83 1.0
2 84 1.0
2 85 1.0
2 86 1.0
2 87 1.0
2 88 1.0
3 89 1.0
3 90 1.0
3 91 1.0
3 92 1.0
3 93 1.0
3 94 1.0
3 95 1.0
3 96 1.0
4 97 1.0
4 98 1.0
4 99 1.0
4 100 1.0
4 101 1.0
4 102 1.0
4 103 1.0
4 104 1.0
5 105 -1.0
5 106 -1.25
5 107 1.25
6 108 -1.0
6 109 -1.25
6 110 1.25
7 111 -1.0
7 112 -1.25
7 113 1.25
8 114 -1.0
8 115 -1.25
8 116 1.25
9 117 -1.0
9 118 -1.25
9 119 1.25
10 120 -1.0
10 121 -1.25
10 122 1.25
11 123 -1.0
11 124 -1.25
11 125 1.25
12 126 -1.0
12 127 -1.25
12 128 1.25
13 129 -1.0
13 130 -1.25
13 131 1.25
14 132 -1.0
14 133 -1.25
14 134 1.25
15 135 -1.0
15 136 -1.25
15 137 1.25
16 138 -1.0
16 139 -1.25
16 140 1.25
17 141 -1.0
17 142 -1.25
17 143 1.25
18 144 -1.0
18 145 -1.25
18 146 1.25
19 147 -1.0
19 148 -1.25
19 149 1.25
20 150 -1.0
20 151 -1.25
20 152 1.25
21 153 -1.0
21 154 -1.25
21 155 1.25
22 156 -1.0
22 157 -1.25
22 158 1.25
23 159 -1.0
23 160 -1.25
23 161 1.25
24 162 -1.0
24 163 -1.25
24 164 1.25
25 165 -1.0
25 166 -1.25
25 167 1.25
26 168 -1.0
26 169 -1.25
26 170 1.25
27 171 -1.0
27 172 -1.25
27 173 1.25
28 174 -1.0
28 175 -1.25
28 176 1.25
29 177 -1.0
29 178 -1.25
29 179 1.25
30 180 -1.0
30 181 -1.25
30 182 1.25
31 183 -1.0
31 184 -1.25
31 185 1.25
32 186 -1.0
32 187 -1.25
32 188 1.25
33 189 -1.0
33 190 -1.25
33 191 1.25
34 192 -1.0
34 193 -1.25
34 194 1.25
35 195 -1.0
35 196 -1.25
35 197 1.25
36 198 -1.0
36 199 -1.25
36 200 1.25
37 105 1.0
37 106 50.0
37 107 -50.0
38 108 1.0
38 109 50.0
38 110 -50.0
39 111 1.0
39 112 50.0
39 113 -50.0
40 114 1.0
40 115 50.0
40 116 -50.0
41 117 1.0
41 118 50.0
41 119 -50.0
42 120 1.0
42 121 50.0
42 122 -50.0
43 123 1.0
43 124 50.0
43 125 -50.0
44 126 1.0
44 127 50.0
44 128 -50.0
45 129 1.0
45 130 50.0
45 131 -50.0
46 132 1.0
46 133 50.0
46 134 -50.0
47 135 1.0
47 136 50.0
47 137 -50.0
48 138 1.0
48 139 50.0
48 140 -50.0
49 141 1.0
49 142 50.0
49 143 -50.0
50 144 1.0
50 145 50.0
50 146 -50.0
51 147 1.0
51 148 50.0
51 149 -50.0
52 150 1.0
52 151 50.0
52 152 -50.0
53 153 1.0
53 154 50.0
53 155 -50.0
54 156 1.0
54 157 50.0
54 158 -50.0
55 159 1.0
55 160 50.0
55 161 -50.0
56 162 1.0
56 163 50.0
56 164 -50.0
57 165 1.0
57 166 50.0
57 167 -50.0
58 168 1.0
58 169 50.0
58 170 -50.0
59 171 1.0
59 172 50.0
59 173 -50.0
60 174 1.0
60 175 50.0
60 176 -50.0
61 177 1.0
61 178 50.0
61 179 -50.0
62 180 1.0
62 181 50.0
62 182 -50.0
63 183 1.0
63 184 50.0
63 185 -50.0
64 186 1.0
64 187 50.0
64 188 -50.0
65 189 1.0
65 190 50.0
65 191 -50.0
66 192 1.0
66 193 50.0
66 194 -50.0
67 195 1.0
67 196 50.0
67 197 -50.0
68 198 1.0
68 199 50.0
68 200 -50.0
69 73 -10.0
69 105 1.0
70 74 -10.0
70 108 1.0
71 75 -10.0
71 111 1.0
72 76 -10.0
72 114 1.0
73 77 -10.0
73 117 1.0
74 78 -10.0
74 120 1.0
75 79 -10.0
75 123 1.0
76 80 -10.0
76 126 1.0
77 81 -300.0
77 129 1.0
78 82 -300.0
78 132 1.0
79 83 -300.0
79 135 1.0
80 84 -300.0
80 138 1.0
81 85 -300.0
81 141 1.0
82 86 -300.0
82 144 1.0
83 87 -300.0
83 147 1.0
84 88 -300.0
84 150 1.0
85 89 -300.0
85 153 1.0
86 90 -300.0
86 156 1.0
87 91 -300.0
87 159 1.0
88 92 -300.0
88 162 1.0
89 93 -300.0
89 165 1.0
90 94 -300.0
90 168 1.0
91 95 -300.0
91 171 1.0
92 96 -300.0
92 174 1.0
93 97 -340.0
93 177 1.0
94 98 -340.0
94 180 1.0
95 99 -340.0
95 183 1.0
96 100 -340.0
96 186 1.0
97 101 -340.0
97 189 1.0
98 102 -340.0
98 192 1.0
99 103 -340.0
99 195 1.0
100 104 -340.0
100 198 1.0
101 73 72.0
101 106 -1.0
101 201 1.0
102 74 72.0
102 109 -1.0
102 201 1.0
103 75 72.0
103 112 -1.0
103 201 1.0
104 76 72.0
104 115 -1.0
104 201 1.0
105 77 72.0
105 118 -1.0
105 201 1.0
106 78 72.0
106 121 -1.0
106 201 1.0
107 79 72.0
107 124 -1.0
107 201 1.0
108 80 72.0
108 127 -1.0
108 201 1.0
109 81 72.0
109 130 -1.0
109 202 1.0
110 82 72.0
110 133 -1.0
110 202 1.0
111 83 72.0
111 136 -1.0
111 202 1.0
112 84 72.0
112 139 -1.0
112 202 1.0
113 85 72.0
113 142 -1.0
113 202 1.0
114 86 72.0
114 145 -1.0
114 202 1.0
115 87 72.0
115 148 -1.0
115 202 1.0
116 88 72.0
116 151 -1.0
116 202 1.0
117 89 72.0
117 154 -1.0
117 203 1.0
118 90 72.0
118 157 -1.0
118 203 1.0
119 91 72.0
119 160 -1.0
119 203 1.0
120 92 72.0
120 163 -1.0
120 203 1.0
121 93 72.0
121 166 -1.0
121 203 1.0
122 94 72.0
122 169 -1.0
122 203 1.0
123 95 72.0
123 172 -1.0
123 203 1.0
124 96 72.0
124 175 -1.0
124 203 1.0
125 97 72.0
125 178 -1.0
125 204 1.0
126 98 72.0
126 181 -1.0
126 204 1.0
127 99 72.0
127 184 -1.0
127 204 1.0
128 100 72.0
128 187 -1.0
128 204 1.0
129 101 72.0
129 190 -1.0
129 204 1.0
130 102 72.0
130 193 -1.0
130 204 1.0
131 103 72.0
131 196 -1.0
131 204 1.0
132 104 72.0
132 199 -1.0
132 204 1.0
133 73 -72.0
133 107 -1.0
133 205 1.0
134 74 -72.0
134 110 -1.0
134 205 1.0
135 75 -72.0
135 113 -1.0
135 205 1.0
136 76 -72.0
136 116 -1.0
136 205 1.0
137 77 -72.0
137 119 -1.0
137 205 1.0
138 78 -72.0
138 122 -1.0
138 205 1.0
139 79 -72.0
139 125 -1.0
139 205 1.0
140 80 -72.0
140 128 -1.0
140 205 1.0
141 81 -72.0
141 131 -1.0
141 206 1.0
142 82 -72.0
142 134 -1.0
142 206 1.0
143 83 -72.0
143 137 -1.0
143 206 1.0
144 84 -72.0
144 140 -1.0
144 206 1.0
145 85 -72.0
145 143 -1.0
145 206 1.0
146 86 -72.0
146 146 -1.0
146 206 1.0
147 87 -72.0
147 149 -1.0
147 206 1.0
148 88 -72.0
148 152 -1.0
148 206 1.0
149 89 -72.0
149 155 -1.0
149 207 1.0
150 90 -72.0
150 158 -1.0
150 207 1.0
151 91 -72.0
151 161 -1.0
151 207 1.0
152 92 -72.0
152 164 -1.0
152 207 1.0
153 93 -72.0
153 167 -1.0
153 207 1.0
154 94 -72.0
154 170 -1.0
154 207 1.0
155 95 -72.0
155 173 -1.0
155 207 1.0
156 96 -72.0
156 176 -1.0
156 207 1.0
157 97 -72.0
157 179 -1.0
157 208 1.0
158 98 -72.0
158 182 -1.0
158 208 1.0
159 99 -72.0
159 185 -1.0
159 208 1.0
160 100 -72.0
160 188 -1.0
160 208 1.0
161 101 -72.0
161 191 -1.0
161 208 1.0
162 102 -72.0
162 194 -1.0
162 208 1.0
163 103 -72.0
163 197 -1.0
163 208 1.0
164 104 -72.0
164 200 -1.0
164 208 1.0
165 202 1.0
165 205 -1.0
166 203 1.0
166 206 -1.0
167 204 1.0
167 207 -1.0
168 209 -1.0
168 210 1.0
168 211 1.0
169 212 -1.0
169 213 1.0
169 214 1.0
170 215 -1.0
170 216 1.0
170 217 1.0
171 218 -1.0
171 219 1.0
171 220 1.0
172 221 -1.0
172 222 1.0
172 223 1.0
173 224 -1.0
173 225 1.0
173 226 1.0
174 227 -1.0
174 228 1.0
174 229 1.0
175 230 -1.0
175 231 1.0
175 232 1.0
176 233 -1.0
176 234 1.0
176 235 1.0
177 236 -1.0
177 237 1.0
177 238 1.0
178 239 -1.0
178 240 1.0
178 241 1.0
179 242 -1.0
179 243 1.0
179 244 1.0
180 245 -1.0
180 246 1.0
180 247 1.0
181 248 -1.0
181 249 1.0
181 250 1.0
182 251 -1.0
182 252 1.0
182 253 1.0
183 254 -1.0
183 255 1.0
183 256 1.0
184 209 0.2
184 210 -1.0
185 212 0.2
185 213 -1.0
186 215 0.2
186 216 -1.0
187 218 0.2
187 219 -1.0
188 209 0.2
188 211 -1.0
189 212 0.2
189 214 -1.0
190 215 0.2
190 217 -1.0
191 218 0.2
191 220 -1.0
192 221 0.2
192 222 -1.0
193 224 0.2
193 225 -1.0
194 227 0.2
194 228 -1.0
195 230 0.2
195 231 -1.0
196 221 0.2
196 223 -1.0
197 224 0.2
197 226 -1.0
198 227 0.2
198 229 -1.0
199 230 0.2
199 232 -1.0
200 245 0.2
200 246 -1.0
201 248 0.2
201 249 -1.0
202 251 0.2
202 252 -1.0
203 254 0.2
203 255 -1.0
204 245 0.2
204 247 -1.0
205 248 0.2
205 250 -1.0
206 251 0.2
206 253 -1.0
207 254 0.2
207 256 -1.0
208 209 -0.8
208 210 1.0
209 212 -0.8
209 213 1.0
210 215 -0.8
210 216 1.0
211 218 -0.8
211 219 1.0
212 209 -0.8
212 211 1.0
213 212 -0.8
213 214 1.0
214 215 -0.8
214 217 1.0
215 218 -0.8
215 220 1.0
216 221 -0.8
216 222 1.0
217 224 -0.8
217 225 1.0
218 227 -0.8
218 228 1.0
219 230 -0.8
219 231 1.0
220 221 -0.8
220 223 1.0
221 224 -0.8
221 226 1.0
222 227 -0.8
222 229 1.0
223 230 -0.8
223 232 1.0
224 245 -0.8
224 246 1.0
225 248 -0.8
225 249 1.0
226 251 -0.8
226 252 1.0
227 254 -0.8
227 255 1.0
228 245 -0.8
228 247 1.0
229 248 -0.8
229 250 1.0
230 251 -0.8
230 253 1.0
231 254 -0.8
231 256 1.0
232 1 1.0
232 257 -0.6666666667
233 5 1.0
233 257 -0.3333333333
234 9 1.0
234 258 -0.3333333333
235 13 1.0
235 258 -0.6666666667
236 17 1.0
236 259 -0.2
237 21 1.0
237 259 -0.8
238 25 1.0
238 260 -0.4333333333
239 29 1.0
239 260 -0.5666666667
240 73 1.0
240 261 1.0
241 74 1.0
241 262 1.0
242 75 1.0
242 263 1.0
243 76 1.0
243 264 1.0
244 77 1.0
244 265 1.0
245 78 1.0
245 266 1.0
246 79 1.0
246 267 1.0
247 80 1.0
247 268 1.0
248 81 1.0
248 261 1.0
249 82 1.0
249 262 1.0
250 83 1.0
250 263 1.0
251 84 1.0
251 264 1.0
252 85 1.0
252 265 1.0
253 86 1.0
253 266 1.0
254 87 1.0
254 267 1.0
255 88 1.0
255 268 1.0
256 89 1.0
256 269 1.0
257 90 1.0
257 270 1.0
258 91 1.0
258 271 1.0
259 92 1.0
259 272 1.0
260 93 1.0
260 273 1.0
261 94 1.0
261 274 1.0
262 95 1.0
262 275 1.0
263 96 1.0
263 276 1.0
264 97 1.0
264 269 1.0
265 98 1.0
265 270 1.0
266 99 1.0
266 271 1.0
267 100 1.0
267 272 1.0
268 101 1.0
268 273 1.0
269 102 1.0
269 274 1.0
270 103 1.0
270 275 1.0
271 104 1.0
271 276 1.0
272 261 1.0
272 265 1.0
273 262 1.0
273 266 1.0
274 263 1.0
274 267 1.0
275 264 1.0
275 268 1.0
276 269 1.0
276 273 1.0
277 270 1.0
277 274 1.0
278 271 1.0
278 275 1.0
279 272 1.0
279 276 1.0
280 257 1.0
280 277 12.5
280 278 -12.5
281 279 1.0
281 280 12.5
281 281 -12.5
282 282 1.0
282 283 12.5
282 284 -12.5
283 285 1.0
283 286 12.5
283 287 -12.5
284 258 1.0
284 288 12.5
284 289 -12.5
285 290 1.0
285 291 12.5
285 292 -12.5
286 293 1.0
286 294 12.5
286 295 -12.5
287 296 1.0
287 297 12.5
287 298 -12.5
288 259 1.0
288 299 12.5
288 300 -12.5
289 301 1.0
289 302 12.5
289 303 -12.5
290 304 1.0
290 305 12.5
290 306 -12.5
291 307 1.0
291 308 12.5
291 309 -12.5
292 260 1.0
292 310 12.5
292 311 -12.5
293 312 1.0
293 313 12.5
293 314 -12.5
294 315 1.0
294 316 12.5
294 317 -12.5
295 318 1.0
295 319 12.5
295 320 -12.5
296 257 1.0
296 261 -250.0
297 262 -560.0
297 279 1.0
298 263 -650.0
298 282 1.0
299 264 -650.0
299 285 1.0
300 258 1.0
300 269 -250.0
301 270 -650.0
301 290 1.0
302 271 -650.0
302 293 1.0
303 272 -650.0
303 296 1.0
304 259 1.0
304 273 -200.0
305 274 -840.0
305 301 1.0
306 275 -850.0
306 304 1.0
307 276 -850.0
307 307 1.0
308 260 1.0
308 265 -250.0
309 266 -560.0
309 312 1.0
310 267 -650.0
310 315 1.0
311 268 -650.0
311 318 1.0
312 1 -1.0
312 5 -1.0
312 257 1.0
313 2 -1.0
313 6 -1.0
313 279 1.0
314 3 -1.0
314 7 -1.0
314 282 1.0
315 4 -1.0
315 8 -1.0
315 285 1.0
316 9 -1.0
316 13 -1.0
316 258 1.0
317 10 -1.0
317 14 -1.0
317 290 1.0
318 11 -1.0
318 15 -1.0
318 293 1.0
319 12 -1.0
319 16 -1.0
319 296 1.0
320 17 -1.0
320 21 -1.0
320 259 1.0
321 18 -1.0
321 22 -1.0
321 301 1.0
322 19 -1.0
322 23 -1.0
322 304 1.0
323 20 -1.0
323 24 -1.0
323 307 1.0
324 25 -1.0
324 29 -1.0
324 260 1.0
325 26 -1.0
325 30 -1.0
325 312 1.0
326 27 -1.0
326 31 -1.0
326 315 1.0
327 28 -1.0
327 32 -1.0
327 318 1.0
328 257 -1.0
328 260 -1.0
328 321 1.0
329 279 -1.0
329 312 -1.0
329 322 1.0
330 282 -1.0
330 315 -1.0
330 323 1.0
331 285 -1.0
331 318 -1.0
331 324 1.0
332 258 -1.0
332 259 -1.0
332 325 1.0
333 290 -1.0
333 301 -1.0
333 326 1.0
334 293 -1.0
334 304 -1.0
334 327 1.0
335 296 -1.0
335 307 -1.0
335 328 1.0
336 321 -1.0
336 329 -6.25
336 330 6.25
337 322 -1.0
337 331 -6.25
337 332 6.25
338 323 -1.0
338 333 -6.25
338 334 6.25
339 324 -1.0
339 335 -6.25
339 336 6.25
340 325 -1.0
340 337 -6.25
340 338 6.25
341 326 -1.0
341 339 -6.25
341 340 6.25
342 327 -1.0
342 341 -6.25
342 342 6.25
343 328 -1.0
343 343 -6.25
343 344 6.25
344 321 1.0
344 329 12.5
344 330 -12.5
345 322 1.0
345 331 12.5
345 332 -12.5
346 323 1.0
346 333 12.5
346 334 -12.5
347 324 1.0
347 335 12.5
347 336 -12.5
348 325 1.0
348 337 12.5
348 338 -12.5
349 326 1.0
349 339 12.5
349 340 -12.5
350 327 1.0
350 341 12.5
350 342 -12.5
351 328 1.0
351 343 12.5
351 344 -12.5
352 1 -1.0
352 25 -1.0
352 321 0.3
353 2 -1.0
353 26 -1.0
353 322 0.3
354 3 -1.0
354 27 -1.0
354 323 0.3
355 4 -1.0
355 28 -1.0
355 324 0.3
356 5 -1.0
356 29 -1.0
356 321 0.3
357 6 -1.0
357 30 -1.0
357 322 0.3
358 7 -1.0
358 31 -1.0
358 323 0.3
359 8 -1.0
359 32 -1.0
359 324 0.3
360 1 1.0
360 25 1.0
360 321 -0.7
361 2 1.0
361 26 1.0
361 322 -0.7
362 3 1.0
362 27 1.0
362 323 -0.7
363 4 1.0
363 28 1.0
363 324 -0.7
364 5 1.0
364 29 1.0
364 321 -0.7
365 6 1.0
365 30 1.0
365 322 -0.7
366 7 1.0
366 31 1.0
366 323 -0.7
367 8 1.0
367 32 1.0
367 324 -0.7
368 1 -0.005
368 5 -0.006
368 25 -0.005
368 29 -0.006
368 257 0.0045
368 260 0.0045
369 2 -0.005
369 6 -0.006
369 26 -0.005
369 30 -0.006
369 279 0.0045
369 312 0.0045
370 3 -0.005
370 7 -0.006
370 27 -0.005
370 31 -0.006
370 282 0.0045
370 315 0.0045
371 4 -0.005
371 8 -0.006
371 28 -0.005
371 32 -0.006
371 285 0.0045
371 318 0.0045
372 9 -0.0165
372 13 -0.0145
372 17 -0.0165
372 21 -0.0145
372 258 0.014
372 259 0.014
373 10 -0.0165
373 14 -0.0145
373 18 -0.0165
373 22 -0.0145
373 290 0.014
373 301 0.014
374 11 -0.0165
374 15 -0.0145
374 19 -0.0165
374 23 -0.0145
374 293 0.014
374 304 0.014
375 12 -0.0165
375 16 -0.0145
375 20 -0.0165
375 24 -0.0145
375 296 0.014
375 307 0.014
376 1 0.005
376 5 0.006
376 25 0.005
376 29 0.006
376 257 -0.006
376 260 -0.006
377 2 0.005
377 6 0.006
377 26 0.005
377 30 0.006
377 279 -0.006
377 312 -0.006
378 3 0.005
378 7 0.006
378 27 0.005
378 31 0.006
378 282 -0.006
378 315 -0.006
379 4 0.005
379 8 0.006
379 28 0.005
379 32 0.006
379 285 -0.006
379 318 -0.006
380 9 0.0165
380 13 0.0145
380 17 0.0165
380 21 0.0145
380 258 -0.0153
380 259 -0.0153
381 10 0.0165
381 14 0.0145
381 18 0.0165
381 22 0.0145
381 290 -0.0153
381 301 -0.0153
382 11 0.0165
382 15 0.0145
382 19 0.0165
382 23 0.0145
382 293 -0.0153
382 304 -0.0153
383 12 0.0165
383 16 0.0145
383 20 0.0165
383 24 0.0145
383 296 -0.0153
383 307 -0.0153
384 321 1.0
384 322 1.0
384 323 1.0
384 324 1.0
385 325 1.0
385 326 1.0
385 327 1.0
385 328 1.0
386 107 -1.0
386 109 1.0
387 110 -1.0
387 112 1.0
388 113 -1.0
388 115 1.0
389 119 -1.0
389 121 1.0
390 122 -1.0
390 124 1.0
391 125 -1.0
391 127 1.0
392 131 -1.0
392 133 1.0
393 134 -1.0
393 136 1.0
394 137 -1.0
394 139 1.0
395 143 -1.0
395 145 1.0
396 146 -1.0
396 148 1.0
397 149 -1.0
397 151 1.0
398 155 -1.0
398 157 1.0
399 158 -1.0
399 160 1.0
400 161 -1.0
400 163 1.0
401 167 -1.0
401 169 1.0
402 170 -1.0
402 172 1.0
403 173 -1.0
403 175 1.0
404 179 -1.0
404 181 1.0
405 182 -1.0
405 184 1.0
406 185 -1.0
406 187 1.0
407 191 -1.0
407 193 1.0
408 194 -1.0
408 196 1.0
409 197 -1.0
409 199 1.0
410 73 -72.0
410 107 -1.0
410 133 1.0
411 74 -72.0
411 110 -1.0
411 136 1.0
412 75 -72.0
412 113 -1.0
412 139 1.0
413 77 -72.0
413 119 -1.0
413 145 1.0
414 78 -72.0
414 122 -1.0
414 148 1.0
415 79 -72.0
415 125 -1.0
415 151 1.0
416 81 -72.0
416 109 1.0
416 131 -1.0
417 82 -72.0
417 112 1.0
417 134 -1.0
418 83 -72.0
418 115 1.0
418 137 -1.0
419 85 -72.0
419 121 1.0
419 143 -1.0
420 86 -72.0
420 124 1.0
420 146 -1.0
421 87 -72.0
421 127 1.0
421 149 -1.0
422 89 -72.0
422 155 -1.0
422 181 1.0
423 90 -72.0
423 158 -1.0
423 184 1.0
424 91 -72.0
424 161 -1.0
424 187 1.0
425 93 -72.0
425 167 -1.0
425 193 1.0
426 94 -72.0
426 170 -1.0
426 196 1.0
427 95 -72.0
427 173 -1.0
427 199 1.0
428 97 -72.0
428 157 1.0
428 179 -1.0
429 98 -72.0
429 160 1.0
429 182 -1.0
430 99 -72.0
430 163 1.0
430 185 -1.0
431 101 -72.0
431 169 1.0
431 191 -1.0
432 102 -72.0
432 172 1.0
432 194 -1.0
433 103 -72.0
433 175 1.0
433 197 -1.0
434 278 -1.0
434 280 1.0
435 281 -1.0
435 283 1.0
436 284 -1.0
436 286 1.0
437 289 -1.0
437 291 1.0
438 292 -1.0
438 294 1.0
439 295 -1.0
439 297 1.0
440 300 -1.0
440 302 1.0
441 303 -1.0
441 305 1.0
442 306 -1.0
442 308 1.0
443 311 -1.0
443 313 1.0
444 314 -1.0
444 316 1.0
445 317 -1.0
445 319 1.0
446 109 1.0
446 261 -72.0
446 278 -1.0
447 112 1.0
447 262 -72.0
447 281 -1.0
448 115 1.0
448 263 -72.0
448 284 -1.0
449 121 1.0
449 265 -72.0
449 311 -1.0
450 124 1.0
450 266 -72.0
450 314 -1.0
451 127 1.0
451 267 -72.0
451 317 -1.0
452 133 1.0
452 261 -72.0
452 278 -1.0
453 136 1.0
453 262 -72.0
453 281 -1.0
454 139 1.0
454 263 -72.0
454 284 -1.0
455 145 1.0
455 265 -72.0
455 311 -1.0
456 148 1.0
456 266 -72.0
456 314 -1.0
457 151 1.0
457 267 -72.0
457 317 -1.0
458 157 1.0
458 269 -72.0
458 289 -1.0
459 160 1.0
459 270 -72.0
459 292 -1.0
460 163 1.0
460 271 -72.0
460 295 -1.0
461 169 1.0
461 273 -72.0
461 300 -1.0
462 172 1.0
462 274 -72.0
462 303 -1.0
463 175 1.0
463 275 -72.0
463 306 -1.0
464 181 1.0
464 269 -72.0
464 289 -1.0
465 184 1.0
465 270 -72.0
465 292 -1.0
466 187 1.0
466 271 -72.0
466 295 -1.0
467 193 1.0
467 273 -72.0
467 300 -1.0
468 196 1.0
468 274 -72.0
468 303 -1.0
469 199 1.0
469 275 -72.0
469 306 -1.0
470 73 -80.0
470 107 -1.0
470 280 1.0
471 74 -80.0
471 110 -1.0
471 283 1.0
472 75 -80.0
472 113 -1.0
472 286 1.0
473 77 -80.0
473 119 -1.0
473 313 1.0
474 78 -80.0
474 122 -1.0
474 316 1.0
475 79 -80.0
475 125 -1.0
475 319 1.0
476 81 -80.0
476 131 -1.0
476 280 1.0
477 82 -80.0
477 134 -1.0
477 283 1.0
478 83 -80.0
478 137 -1.0
478 286 1.0
479 85 -80.0
479 143 -1.0
479 313 1.0
480 86 -80.0
480 146 -1.0
480 316 1.0
481 87 -80.0
481 149 -1.0
481 319 1.0
482 89 -80.0
482 155 -1.0
482 291 1.0
483 90 -80.0
483 158 -1.0
483 294 1.0
484 91 -80.0
484 161 -1.0
484 297 1.0
485 93 -80.0
485 167 -1.0
485 302 1.0
486 94 -80.0
486 170 -1.0
486 305 1.0
487 95 -80.0
487 173 -1.0
487 308 1.0
488 97 -80.0
488 179 -1.0
488 291 1.0
489 98 -80.0
489 182 -1.0
489 294 1.0
490 99 -80.0
490 185 -1.0
490 297 1.0
491 101 -80.0
491 191 -1.0
491 302 1.0
492 102 -80.0
492 194 -1.0
492 305 1.0
493 103 -80.0
493 197 -1.0
493 308 1.0
494 330 -1.0
494 331 1.0
495 332 -1.0
495 333 1.0
496 334 -1.0
496 335 1.0
497 338 -1.0
497 339 1.0
498 340 -1.0
498 341 1.0
499 342 -1.0
499 343 1.0
500 261 -72.0
500 277 -1.0
500 329 1.0
501 262 -72.0
501 280 -1.0
501 331 1.0
502 263 -72.0
502 283 -1.0
502 333 1.0
503 264 -72.0
503 286 -1.0
503 335 1.0
504 269 -72.0
504 288 -1.0
504 337 1.0
505 270 -72.0
505 291 -1.0
505 339 1.0
506 271 -72.0
506 294 -1.0
506 341 1.0
507 272 -72.0
507 297 -1.0
507 343 1.0
508 273 -72.0
508 299 -1.0
508 337 1.0
509 274 -72.0
509 302 -1.0
509 339 1.0
510 275 -72.0
510 305 -1.0
510 341 1.0
511 276 -72.0
511 308 -1.0
511 343 1.0
512 265 -72.0
512 310 -1.0
512 329 1.0
513 266 -72.0
513 313 -1.0
513 331 1.0
514 267 -72.0
514 316 -1.0
514 333 1.0
515 268 -72.0
515 319 -1.0
515 335 1.0
516 261 72.0
516 277 -1.0
516 329 1.0
517 262 72.0
517 280 -1.0
517 331 1.0
518 263 72.0
518 283 -1.0
518 333 1.0
519 264 72.0
519 286 -1.0
519 335 1.0
520 269 72.0
520 288 -1.0
520 337 1.0
521 270 72.0
521 291 -1.0
521 339 1.0
522 271 72.0
522 294 -1.0
522 341 1.0
523 272 72.0
523 297 -1.0
523 343 1.0
524 273 72.0
524 299 -1.0
524 337 1.0
525 274 72.0
525 302 -1.0
525 339 1.0
526 275 72.0
526 305 -1.0
526 341 1.0
527 276 72.0
527 308 -1.0
527 343 1.0
528 265 72.0
528 310 -1.0
528 329 1.0
529 266 72.0
529 313 -1.0
529 331 1.0
530 267 72.0
530 316 -1.0
530 333 1.0
531 268 72.0
531 319 -1.0
531 335 1.0
532 261 -72.0
532 278 -1.0
532 330 1.0
533 262 -72.0
533 281 -1.0
533 332 1.0
534 263 -72.0
534 284 -1.0
534 334 1.0
535 264 -72.0
535 287 -1.0
535 336 1.0
536 269 -72.0
536 289 -1.0
536 338 1.0
537 270 -72.0
537 292 -1.0
537 340 1.0
538 271 -72.0
538 295 -1.0
538 342 1.0
539 272 -72.0
539 298 -1.0
539 344 1.0
540 273 -72.0
540 300 -1.0
540 338 1.0
541 274 -72.0
541 303 -1.0
541 340 1.0
542 275 -72.0
542 306 -1.0
542 342 1.0
543 276 -72.0
543 309 -1.0
543 344 1.0
544 265 -72.0
544 311 -1.0
544 330 1.0
545 266 -72.0
545 314 -1.0
545 332 1.0
546 267 -72.0
546 317 -1.0
546 334 1.0
547 268 -72.0
547 320 -1.0
547 336 1.0
548 261 72.0
548 278 -1.0
548 330 1.0
549 262 72.0
549 281 -1.0
549 332 1.0
550 263 72.0
550 284 -1.0
550 334 1.0
551 264 72.0
551 287 -1.0
551 336 1.0
552 269 72.0
552 289 -1.0
552 338 1.0
553 270 72.0
553 292 -1.0
553 340 1.0
554 271 72.0
554 295 -1.0
554 342 1.0
555 272 72.0
555 298 -1.0
555 344 1.0
556 273 72.0
556 300 -1.0
556 338 1.0
557 274 72.0
557 303 -1.0
557 340 1.0
558 275 72.0
558 306 -1.0
558 342 1.0
559 276 72.0
559 309 -1.0
559 344 1.0
560 265 72.0
560 311 -1.0
560 330 1.0
561 266 72.0
561 314 -1.0
561 332 1.0
562 267 72.0
562 317 -1.0
562 334 1.0
563 268 72.0
563 320 -1.0
563 336 1.0
564 2 1.0
564 132 -1.0
564 210 -1.0
564 213 1.0
565 3 1.0
565 135 -1.0
565 213 -1.0
565 216 1.0
566 4 1.0
566 138 -1.0
566 216 -1.0
566 219 1.0
567 6 1.0
567 108 -1.0
567 211 -1.0
567 214 1.0
568 7 1.0
568 111 -1.0
568 214 -1.0
568 217 1.0
569 8 1.0
569 114 -1.0
569 217 -1.0
569 220 1.0
570 10 1.0
570 180 -1.0
570 222 -1.0
570 225 1.0
571 11 1.0
571 183 -1.0
571 225 -1.0
571 228 1.0
572 12 1.0
572 186 -1.0
572 228 -1.0
572 231 1.0
573 14 1.0
573 156 -1.0
573 223 -1.0
573 226 1.0
574 15 1.0
574 159 -1.0
574 226 -1.0
574 229 1.0
575 16 1.0
575 162 -1.0
575 229 -1.0
575 232 1.0
576 18 1.0
576 192 -1.0
576 234 -1.0
576 237 1.0
577 19 1.0
577 195 -1.0
577 237 -1.0
577 240 1.0
578 20 1.0
578 198 -1.0
578 240 -1.0
578 243 1.0
579 22 1.0
579 168 -1.0
579 235 -1.0
579 238 1.0
580 23 1.0
580 171 -1.0
580 238 -1.0
580 241 1.0
581 24 1.0
581 174 -1.0
581 241 -1.0
581 244 1.0
582 26 1.0
582 144 -1.0
582 246 -1.0
582 249 1.0
583 27 1.0
583 147 -1.0
583 249 -1.0
583 252 1.0
584 28 1.0
584 150 -1.0
584 252 -1.0
584 255 1.0
585 30 1.0
585 120 -1.0
585 247 -1.0
585 250 1.0
586 31 1.0
586 123 -1.0
586 250 -1.0
586 253 1.0
587 32 1.0
587 126 -1.0
587 253 -1.0
587 256 1.0
588 1 1.0
588 129 -1.0
588 210 1.0
589 5 1.0
589 105 -1.0
589 211 1.0
590 9 1.0
590 177 -1.0
590 222 1.0
591 13 1.0
591 153 -1.0
591 223 1.0
592 17 1.0
592 189 -1.0
592 234 1.0
593 21 1.0
593 165 -1.0
593 235 1.0
594 25 1.0
594 141 -1.0
594 246 1.0
595 29 1.0
595 117 -1.0
595 247 1.0
596 329 -1.0
596 330 1.0
596 331 -1.0
596 332 1.0
596 333 -1.0
596 334 1.0
596 335 -1.0
596 336 1.0
597 337 -1.0
597 338 1.0
597 339 -1.0
597 340 1.0
597 341 -1.0
597 342 1.0
597 343 -1.0
597 344 1.0
598 33 1.0
598 261 -1.0
598 262 1.0
599 34 1.0
599 262 -1.0
599 263 1.0
600 35 1.0
600 263 -1.0
600 264 1.0
601 36 1.0
601 269 -1.0
601 270 1.0
602 37 1.0
602 270 -1.0
602 271 1.0
603 38 1.0
603 271 -1.0
603 272 1.0
604 36 1.0
604 273 -1.0
604 274 1.0
605 37 1.0
605 274 -1.0
605 275 1.0
606 38 1.0
606 275 -1.0
606 276 1.0
607 33 1.0
607 265 -1.0
607 266 1.0
608 34 1.0
608 266 -1.0
608 267 1.0
609 35 1.0
609 267 -1.0
609 268 1.0
610 33 1.0
610 261 1.0
610 262 -1.0
611 34 1.0
611 262 1.0
611 263 -1.0
612 35 1.0
612 263 1.0
612 264 -1.0
613 36 1.0
613 269 1.0
613 270 -1.0
614 37 1.0
614 270 1.0
614 271 -1.0
615 38 1.0
615 271 1.0
615 272 -1.0
616 36 1.0
616 273 1.0
616 274 -1.0
617 37 1.0
617 274 1.0
617 275 -1.0
618 38 1.0
618 275 1.0
618 276 -1.0
619 33 1.0
619 265 1.0
619 266 -1.0
620 34 1.0
620 266 1.0
620 267 -1.0
621 35 1.0
621 267 1.0
621 268 -1.0
622 71 1.0
622 209 0.2
622 212 0.2
622 215 0.2
622 218 0.2
622 221 0.2
622 224 0.2
622 227 0.2
622 230 0.2
622 233 0.2
622 236 0.2
622 239 0.2
622 242 0.2
622 245 0.2
622 248 0.2
622 251 0.2
622 254 0.2
623 72 1.0
623 208 -12.5
624 2 1.0
625 3 1.0
626 4 1.0
627 6 1.0
628 7 1.0
629 8 1.0
630 10 1.0
631 11 1.0
632 12 1.0
633 14 1.0
634 15 1.0
635 16 1.0
636 18 1.0
637 19 1.0
638 20 1.0
639 22 1.0
640 23 1.0
641 24 1.0
642 26 1.0
643 27 1.0
644 28 1.0
645 30 1.0
646 31 1.0
647 32 1.0
648 210 1.0
649 213 1.0
650 216 1.0
651 219 1.0
652 211 1.0
653 214 1.0
654 217 1.0
655 220 1.0
656 222 1.0
657 225 1.0
658 228 1.0
659 231 1.0
660 223 1.0
661 226 1.0
662 229 1.0
663 232 1.0
664 234 1.0
665 237 1.0
666 240 1.0
667 243 1.0
668 235 1.0
669 238 1.0
670 241 1.0
671 244 1.0
672 246 1.0
673 249 1.0
674 252 1.0
675 255 1.0
676 247 1.0
677 250 1.0
678 253 1.0
679 256 1.0
1.79769313486232E+308 # value for infinity
-1.79769313486232E+308 # default left-hand-side value
383 # number of non-default left-hand-sides
1 1.0
2 1.0
3 1.0
4 1.0
69 0.0
70 0.0
71 0.0
72 0.0
73 0.0
74 0.0
75 0.0
76 0.0
77 0.0
78 0.0
79 0.0
80 0.0
81 0.0
82 0.0
83 0.0
84 0.0
85 0.0
86 0.0
87 0.0
88 0.0
89 0.0
90 0.0
91 0.0
92 0.0
93 0.0
94 0.0
95 0.0
96 0.0
97 0.0
98 0.0
99 0.0
100 0.0
133 -72.0
134 -72.0
135 -72.0
136 -72.0
137 -72.0
138 -72.0
139 -72.0
140 -72.0
141 -72.0
142 -72.0
143 -72.0
144 -72.0
145 -72.0
146 -72.0
147 -72.0
148 -72.0
149 -72.0
150 -72.0
151 -72.0
152 -72.0
153 -72.0
154 -72.0
155 -72.0
156 -72.0
157 -72.0
158 -72.0
159 -72.0
160 -72.0
161 -72.0
162 -72.0
163 -72.0
164 -72.0
165 0.0
166 0.0
167 0.0
168 0.0
169 0.0
170 0.0
171 0.0
172 0.0
173 0.0
174 0.0
175 0.0
176 0.0
177 0.0
178 0.0
179 0.0
180 0.0
181 0.0
182 0.0
183 0.0
232 0.0
233 0.0
234 0.0
235 0.0
236 0.0
237 0.0
238 0.0
239 0.0
312 0.0
313 0.0
314 0.0
315 0.0
316 0.0
317 0.0
318 0.0
319 0.0
320 0.0
321 0.0
322 0.0
323 0.0
324 0.0
325 0.0
326 0.0
327 0.0
328 0.0
329 0.0
330 0.0
331 0.0
332 0.0
333 0.0
334 0.0
335 0.0
384 550.0
385 550.0
386 0.0
387 0.0
388 0.0
389 0.0
390 0.0
391 0.0
392 0.0
393 0.0
394 0.0
395 0.0
396 0.0
397 0.0
398 0.0
399 0.0
400 0.0
401 0.0
402 0.0
403 0.0
404 0.0
405 0.0
406 0.0
407 0.0
408 0.0
409 0.0
410 -72.0
411 -72.0
412 -72.0
413 -72.0
414 -72.0
415 -72.0
416 -72.0
417 -72.0
418 -72.0
419 -72.0
420 -72.0
421 -72.0
422 -72.0
423 -72.0
424 -72.0
425 -72.0
426 -72.0
427 -72.0
428 -72.0
429 -72.0
430 -72.0
431 -72.0
432 -72.0
433 -72.0
434 0.0
435 0.0
436 0.0
437 0.0
438 0.0
439 0.0
440 0.0
441 0.0
442 0.0
443 0.0
444 0.0
445 0.0
446 -72.0
447 -72.0
448 -72.0
449 -72.0
450 -72.0
451 -72.0
452 -72.0
453 -72.0
454 -72.0
455 -72.0
456 -72.0
457 -72.0
458 -72.0
459 -72.0
460 -72.0
461 -72.0
462 -72.0
463 -72.0
464 -72.0
465 -72.0
466 -72.0
467 -72.0
468 -72.0
469 -72.0
470 -72.0
471 -72.0
472 -72.0
473 -72.0
474 -72.0
475 -72.0
476 -72.0
477 -72.0
478 -72.0
479 -72.0
480 -72.0
481 -72.0
482 -72.0
483 -72.0
484 -72.0
485 -72.0
486 -72.0
487 -72.0
488 -72.0
489 -72.0
490 -72.0
491 -72.0
492 -72.0
493 -72.0
494 0.0
495 0.0
496 0.0
497 0.0
498 0.0
499 0.0
500 -72.0
501 -72.0
502 -72.0
503 -72.0
504 -72.0
505 -72.0
506 -72.0
507 -72.0
508 -72.0
509 -72.0
510 -72.0
511 -72.0
512 -72.0
513 -72.0
514 -72.0
515 -72.0
532 -72.0
533 -72.0
534 -72.0
535 -72.0
536 -72.0
537 -72.0
538 -72.0
539 -72.0
540 -72.0
541 -72.0
542 -72.0
543 -72.0
544 -72.0
545 -72.0
546 -72.0
547 -72.0
564 0.0
565 0.0
566 0.0
567 0.0
568 0.0
569 0.0
570 0.0
571 0.0
572 0.0
573 0.0
574 0.0
575 0.0
576 0.0
577 0.0
578 0.0
579 0.0
580 0.0
581 0.0
582 0.0
583 0.0
584 0.0
585 0.0
586 0.0
587 0.0
588 200.0
589 100.0
590 100.0
591 200.0
592 50.0
593 200.0
594 130.0
595 170.0
596 72.0
597 72.0
598 0.0
599 0.0
600 0.0
601 0.0
602 0.0
603 0.0
604 0.0
605 0.0
606 0.0
607 0.0
608 0.0
609 0.0
610 0.0
611 0.0
612 0.0
613 0.0
614 0.0
615 0.0
616 0.0
617 0.0
618 0.0
619 0.0
620 0.0
621 0.0
622 970.0
623 -400.0
624 0.0
625 0.0
626 0.0
627 0.0
628 0.0
629 0.0
630 0.0
631 0.0
632 0.0
633 0.0
634 0.0
635 0.0
636 0.0
637 0.0
638 0.0
639 0.0
640 0.0
641 0.0
642 0.0
643 0.0
644 0.0
645 0.0
646 0.0
647 0.0
648 0.0
649 0.0
650 0.0
651 0.0
652 0.0
653 0.0
654 0.0
655 0.0
656 0.0
657 0.0
658 0.0
659 0.0
660 0.0
661 0.0
662 0.0
663 0.0
664 0.0
665 0.0
666 0.0
667 0.0
668 0.0
669 0.0
670 0.0
671 0.0
672 0.0
673 0.0
674 0.0
675 0.0
676 0.0
677 0.0
678 0.0
679 0.0
1.79769313486232E+308 # default right-hand-side value
472 # number of non-default right-hand-sides
1 1.0
2 1.0
3 1.0
4 1.0
5 0.0
6 0.0
7 0.0
8 0.0
9 0.0
10 0.0
11 0.0
12 0.0
13 0.0
14 0.0
15 0.0
16 0.0
17 0.0
18 0.0
19 0.0
20 0.0
21 0.0
22 0.0
23 0.0
24 0.0
25 0.0
26 0.0
27 0.0
28 0.0
29 0.0
30 0.0
31 0.0
32 0.0
33 0.0
34 0.0
35 0.0
36 0.0
37 0.0
38 0.0
39 0.0
40 0.0
41 0.0
42 0.0
43 0.0
44 0.0
45 0.0
46 0.0
47 0.0
48 0.0
49 0.0
50 0.0
51 0.0
52 0.0
53 0.0
54 0.0
55 0.0
56 0.0
57 0.0
58 0.0
59 0.0
60 0.0
61 0.0
62 0.0
63 0.0
64 0.0
65 0.0
66 0.0
67 0.0
68 0.0
69 0.0
70 0.0
71 0.0
72 0.0
73 0.0
74 0.0
75 0.0
76 0.0
77 0.0
78 0.0
79 0.0
80 0.0
81 0.0
82 0.0
83 0.0
84 0.0
85 0.0
86 0.0
87 0.0
88 0.0
89 0.0
90 0.0
91 0.0
92 0.0
93 0.0
94 0.0
95 0.0
96 0.0
97 0.0
98 0.0
99 0.0
100 0.0
101 72.0
102 72.0
103 72.0
104 72.0
105 72.0
106 72.0
107 72.0
108 72.0
109 72.0
110 72.0
111 72.0
112 72.0
113 72.0
114 72.0
115 72.0
116 72.0
117 72.0
118 72.0
119 72.0
120 72.0
121 72.0
122 72.0
123 72.0
124 72.0
125 72.0
126 72.0
127 72.0
128 72.0
129 72.0
130 72.0
131 72.0
132 72.0
168 0.0
169 0.0
170 0.0
171 0.0
172 0.0
173 0.0
174 0.0
175 0.0
176 0.0
177 0.0
178 0.0
179 0.0
180 0.0
181 0.0
182 0.0
183 0.0
184 0.0
185 0.0
186 0.0
187 0.0
188 0.0
189 0.0
190 0.0
191 0.0
192 0.0
193 0.0
194 0.0
195 0.0
196 0.0
197 0.0
198 0.0
199 0.0
200 0.0
201 0.0
202 0.0
203 0.0
204 0.0
205 0.0
206 0.0
207 0.0
208 0.0
209 0.0
210 0.0
211 0.0
212 0.0
213 0.0
214 0.0
215 0.0
216 0.0
217 0.0
218 0.0
219 0.0
220 0.0
221 0.0
222 0.0
223 0.0
224 0.0
225 0.0
226 0.0
227 0.0
228 0.0
229 0.0
230 0.0
231 0.0
232 0.0
233 0.0
234 0.0
235 0.0
236 0.0
237 0.0
238 0.0
239 0.0
240 1.0
241 1.0
242 1.0
243 1.0
244 1.0
245 1.0
246 1.0
247 1.0
248 1.0
249 1.0
250 1.0
251 1.0
252 1.0
253 1.0
254 1.0
255 1.0
256 1.0
257 1.0
258 1.0
259 1.0
260 1.0
261 1.0
262 1.0
263 1.0
264 1.0
265 1.0
266 1.0
267 1.0
268 1.0
269 1.0
270 1.0
271 1.0
272 2.0
273 2.0
274 2.0
275 2.0
276 2.0
277 2.0
278 2.0
279 2.0
280 0.0
281 0.0
282 0.0
283 0.0
284 0.0
285 0.0
286 0.0
287 0.0
288 0.0
289 0.0
290 0.0
291 0.0
292 0.0
293 0.0
294 0.0
295 0.0
296 0.0
297 0.0
298 0.0
299 0.0
300 0.0
301 0.0
302 0.0
303 0.0
304 0.0
305 0.0
306 0.0
307 0.0
308 0.0
309 0.0
310 0.0
311 0.0
312 0.0
313 0.0
314 0.0
315 0.0
316 0.0
317 0.0
318 0.0
319 0.0
320 0.0
321 0.0
322 0.0
323 0.0
324 0.0
325 0.0
326 0.0
327 0.0
328 0.0
329 0.0
330 0.0
331 0.0
332 0.0
333 0.0
334 0.0
335 0.0
336 0.0
337 0.0
338 0.0
339 0.0
340 0.0
341 0.0
342 0.0
343 0.0
344 0.0
345 0.0
346 0.0
347 0.0
348 0.0
349 0.0
350 0.0
351 0.0
352 0.0
353 0.0
354 0.0
355 0.0
356 0.0
357 0.0
358 0.0
359 0.0
360 0.0
361 0.0
362 0.0
363 0.0
364 0.0
365 0.0
366 0.0
367 0.0
368 0.0
369 0.0
370 0.0
371 0.0
372 0.0
373 0.0
374 0.0
375 0.0
376 0.0
377 0.0
378 0.0
379 0.0
380 0.0
381 0.0
382 0.0
383 0.0
384 550.0
385 550.0
516 72.0
517 72.0
518 72.0
519 72.0
520 72.0
521 72.0
522 72.0
523 72.0
524 72.0
525 72.0
526 72.0
527 72.0
528 72.0
529 72.0
530 72.0
531 72.0
548 72.0
549 72.0
550 72.0
551 72.0
552 72.0
553 72.0
554 72.0
555 72.0
556 72.0
557 72.0
558 72.0
559 72.0
560 72.0
561 72.0
562 72.0
563 72.0
564 0.0
565 0.0
566 0.0
567 0.0
568 0.0
569 0.0
570 0.0
571 0.0
572 0.0
573 0.0
574 0.0
575 0.0
576 0.0
577 0.0
578 0.0
579 0.0
580 0.0
581 0.0
582 0.0
583 0.0
584 0.0
585 0.0
586 0.0
587 0.0
588 200.0
589 100.0
590 100.0
591 200.0
592 50.0
593 200.0
594 130.0
595 170.0
596 72.0
597 72.0
624 0.0
625 0.0
626 0.0
627 0.0
628 0.0
629 0.0
630 0.0
631 0.0
632 0.0
633 0.0
634 0.0
635 0.0
636 0.0
637 0.0
638 0.0
639 0.0
640 0.0
641 0.0
642 0.0
643 0.0
644 0.0
645 0.0
646 0.0
647 0.0
648 0.0
649 0.0
650 0.0
651 0.0
652 0.0
653 0.0
654 0.0
655 0.0
656 0.0
657 0.0
658 0.0
659 0.0
660 0.0
661 0.0
662 0.0
663 0.0
664 0.0
665 0.0
666 0.0
667 0.0
668 0.0
669 0.0
670 0.0
671 0.0
672 0.0
673 0.0
674 0.0
675 0.0
676 0.0
677 0.0
678 0.0
679 0.0
0.0 # default variable lower bound value
48 # number of non-default variable lower bounds
39 0.6451612903
40 0.04608294931
41 0.003291639236
42 0.0002351170883
43 0.1666666667
44 0.0119047619
45 0.0008503401361
46 6.073858115E-05
47 0.1666666667
48 0.0119047619
49 0.0008503401361
50 6.073858115E-05
51 0.3125
52 0.02232142857
53 0.001594387755
54 0.0001138848397
55 0.09090909091
56 0.005050505051
57 0.0002805836139
58 1.558797855E-05
59 0.3389830508
60 0.01883239171
61 0.001046243984
62 5.812466578E-05
63 0.4193548387
64 0.02995391705
65 0.002139565504
66 0.0001528261074
67 0.2833333333
68 0.02023809524
69 0.001445578231
70 0.0001032555879
209 50.0
212 50.0
215 50.0
218 50.0
221 50.0
224 50.0
227 50.0
230 50.0
233 50.0
236 50.0
239 50.0
242 50.0
245 50.0
248 50.0
251 50.0
254 50.0
1.0 # default variable upper bound value
290 # number of non-default variable upper bounds
1 1.79769313486232E+308
2 1.79769313486232E+308
3 1.79769313486232E+308
4 1.79769313486232E+308
5 1.79769313486232E+308
6 1.79769313486232E+308
7 1.79769313486232E+308
8 1.79769313486232E+308
9 1.79769313486232E+308
10 1.79769313486232E+308
11 1.79769313486232E+308
12 1.79769313486232E+308
13 1.79769313486232E+308
14 1.79769313486232E+308
15 1.79769313486232E+308
16 1.79769313486232E+308
17 1.79769313486232E+308
18 1.79769313486232E+308
19 1.79769313486232E+308
20 1.79769313486232E+308
21 1.79769313486232E+308
22 1.79769313486232E+308
23 1.79769313486232E+308
24 1.79769313486232E+308
25 1.79769313486232E+308
26 1.79769313486232E+308
27 1.79769313486232E+308
28 1.79769313486232E+308
29 1.79769313486232E+308
30 1.79769313486232E+308
31 1.79769313486232E+308
32 1.79769313486232E+308
39 0.8333333333
40 0.9523809524
41 0.9523809524
42 0.9523809524
43 0.3548387097
44 0.4444444444
45 0.4444444444
46 0.4444444444
47 0.6875
48 0.9145299145
49 0.9145299145
50 0.9145299145
51 0.8333333333
52 0.9523809524
53 0.9523809524
54 0.9523809524
55 0.6610169492
56 0.8974358974
57 0.8974358974
58 0.8974358974
59 0.9090909091
60 0.9714285714
61 0.9714285714
62 0.9714285714
63 0.7166666667
64 0.919047619
65 0.919047619
66 0.919047619
67 0.5806451613
68 0.6388888889
69 0.6388888889
70 0.6388888889
71 1200.0
72 1.79769313486232E+308
105 10.0
106 72.0
107 72.0
108 10.0
109 72.0
110 72.0
111 10.0
112 72.0
113 72.0
114 10.0
115 72.0
116 72.0
117 10.0
118 72.0
119 72.0
120 10.0
121 72.0
122 72.0
123 10.0
124 72.0
125 72.0
126 10.0
127 72.0
128 72.0
129 300.0
130 72.0
131 72.0
132 300.0
133 72.0
134 72.0
135 300.0
136 72.0
137 72.0
138 300.0
139 72.0
140 72.0
141 300.0
142 72.0
143 72.0
144 300.0
145 72.0
146 72.0
147 300.0
148 72.0
149 72.0
150 300.0
151 72.0
152 72.0
153 300.0
154 72.0
155 72.0
156 300.0
157 72.0
158 72.0
159 300.0
160 72.0
161 72.0
162 300.0
163 72.0
164 72.0
165 300.0
166 72.0
167 72.0
168 300.0
169 72.0
170 72.0
171 300.0
172 72.0
173 72.0
174 300.0
175 72.0
176 72.0
177 340.0
178 72.0
179 72.0
180 340.0
181 72.0
182 72.0
183 340.0
184 72.0
185 72.0
186 340.0
187 72.0
188 72.0
189 340.0
190 72.0
191 72.0
192 340.0
193 72.0
194 72.0
195 340.0
196 72.0
197 72.0
198 340.0
199 72.0
200 72.0
201 72.0
202 72.0
203 72.0
204 72.0
205 72.0
206 72.0
207 72.0
208 72.0
209 610.0
210 1.79769313486232E+308
211 1.79769313486232E+308
212 700.0
213 1.79769313486232E+308
214 1.79769313486232E+308
215 700.0
216 1.79769313486232E+308
217 1.79769313486232E+308
218 700.0
219 1.79769313486232E+308
220 1.79769313486232E+308
221 700.0
222 1.79769313486232E+308
223 1.79769313486232E+308
224 700.0
225 1.79769313486232E+308
226 1.79769313486232E+308
227 700.0
228 1.79769313486232E+308
229 1.79769313486232E+308
230 700.0
231 1.79769313486232E+308
232 1.79769313486232E+308
233 890.0
234 1.79769313486232E+308
235 1.79769313486232E+308
236 900.0
237 1.79769313486232E+308
238 1.79769313486232E+308
239 900.0
240 1.79769313486232E+308
241 1.79769313486232E+308
242 900.0
243 1.79769313486232E+308
244 1.79769313486232E+308
245 610.0
246 1.79769313486232E+308
247 1.79769313486232E+308
248 700.0
249 1.79769313486232E+308
250 1.79769313486232E+308
251 700.0
252 1.79769313486232E+308
253 1.79769313486232E+308
254 700.0
255 1.79769313486232E+308
256 1.79769313486232E+308
257 250.0
258 250.0
259 200.0
260 250.0
277 72.0
278 72.0
279 560.0
280 72.0
281 72.0
282 650.0
283 72.0
284 72.0
285 650.0
286 72.0
287 72.0
288 72.0
289 72.0
290 650.0
291 72.0
292 72.0
293 650.0
294 72.0
295 72.0
296 650.0
297 72.0
298 72.0
299 72.0
300 72.0
301 840.0
302 72.0
303 72.0
304 850.0
305 72.0
306 72.0
307 850.0
308 72.0
309 72.0
310 72.0
311 72.0
312 560.0
313 72.0
314 72.0
315 650.0
316 72.0
317 72.0
318 650.0
319 72.0
320 72.0
321 1.79769313486232E+308
322 1.79769313486232E+308
323 1.79769313486232E+308
324 1.79769313486232E+308
325 1.79769313486232E+308
326 1.79769313486232E+308
327 1.79769313486232E+308
328 1.79769313486232E+308
329 72.0
330 72.0
331 72.0
332 72.0
333 72.0
334 72.0
335 72.0
336 72.0
337 72.0
338 72.0
339 72.0
340 72.0
341 72.0
342 72.0
343 72.0
344 72.0
0 # default variable type
48 # number of non-default variable types
73 1
74 1
75 1
76 1
77 1
78 1
79 1
80 1
81 1
82 1
83 1
84 1
85 1
86 1
87 1
88 1
89 1
90 1
91 1
92 1
93 1
94 1
95 1
96 1
97 1
98 1
99 1
100 1
101 1
102 1
103 1
104 1
261 1
262 1
263 1
264 1
265 1
266 1
267 1
268 1
269 1
270 1
271 1
272 1
273 1
274 1
275 1
276 1
0.0 # default variable primal value in starting point
48 # number of non-default variable primal values in starting point
39 0.6451612903
40 0.04608294931
41 0.003291639236
42 0.0002351170883
43 0.1666666667
44 0.0119047619
45 0.0008503401361
46 6.073858115E-05
47 0.1666666667
48 0.0119047619
49 0.0008503401361
50 6.073858115E-05
51 0.3125
52 0.02232142857
53 0.001594387755
54 0.0001138848397
55 0.09090909091
56 0.005050505051
57 0.0002805836139
58 1.558797855E-05
59 0.3389830508
60 0.01883239171
61 0.001046243984
62 5.812466578E-05
63 0.4193548387
64 0.02995391705
65 0.002139565504
66 0.0001528261074
67 0.2833333333
68 0.02023809524
69 0.001445578231
70 0.0001032555879
209 50.0
212 50.0
215 50.0
218 50.0
221 50.0
224 50.0
227 50.0
230 50.0
233 50.0
236 50.0
239 50.0
242 50.0
245 50.0
248 50.0
251 50.0
254 50.0
0.0 # default constraint dual value in starting point
0 # number of non-default constraint dual values in starting point
0.0 # default variable bound dual value in starting point
0 # number of non-default variable bound dual values in starting point
0 # number of non-default variable names
0 # number of non-default constraint names
